c File: instances/10_0.35_3.col
c
c Description: Random graph of size 10 vertices and P(0.35) of edges between any two vertices.
p col 10 45
e 1 4
e 1 7
e 2 4
e 2 6
e 2 8
e 3 6
e 3 9
e 4 7
e 4 8
e 5 6
e 5 8
e 7 10
e 8 9